% Data for perfect square placement problem:
% http://www.hakank.org/minizinc/perfect_square_placement.mzn
% Data is originally from CSPLib:
% http://www.cs.st-andrews.ac.uk/~ianm/CSPLib/prob/prob009/results

% problem 6 
n = 147;
size = 22;
a = [2,4,8,10,11,12,15,19,21,22,23,25,26,32,34,37,41,43,45,47,55,59];

